Traveling Salesman Problem/TSP_generados/Aleatorio1621103501_15.tsp
NAME: Aleatorio1621103501_15.tsp
COMMENT: Randomly generated scenario
TYPE: TSP
DIMENSION: 15
EDGE_WEIGHT_TYPE: ATT
NODE_COORD_SECTION
1 2.57 42.2
2 32.28 26.49
3 8.48 48.68
4 4.73 43.73
5 39.68 6.58
6 49.98 0.76
7 22.32 45.53
8 6.8 16.58
9 10.5 34.37
10 33.05 31.17
11 32.25 23.04
12 6.72 5.65
13 39.76 5.39
14 16.37 31.99
15 34.95 20.38
