Traveling Salesman Problem/TSP_generados/Aleatorio1621103501_15.opt.tour
NAME: Aleatorio1621103501_15.opt.tour
COMMENT: Optimal solution for Aleatorio1621103501_15 (169.6097018880758)
TYPE: TOUR
DIMENSION: 15
TOUR_SECTION
1 4 3 7 10 2 11 15 6 13 5 12 8 14 9
-1
EOF
